c Graph coloring SAT 
p cnf 20 40
-1 -2 0
-3 -4 0
5 6 0
-7 -8 0
-3 -8 0
-9 -10 0
-11 -12 0
-13 -8 0
-14 -12 0
-15 -11 0
-14 -16 0
4 12 0
-17 -13 0
2 1 0
-1 -4 0
11 3 0
-12 -4 0
15 8 0
-18 -8 0
-10 -8 0
-15 -12 0
-7 -19 0
-19 -5 0
20 18 0
7 19 0
-9 -15 0
-15 -20 0
-15 -8 0
-15 -19 0
-15 -17 0
-12 -2 0
-6 -5 0
-7 -6 0
-3 -11 0
-16 -4 0
16 14 0
-8 -4 0
13 17 0
-20 -18 0
10 9 0
